p wcnf 195 292 293 
1 192 76 0 
1 181 -193 0 
1 -141 122 0 
1 155 -46 0 
1 67 44 0 
1 -152 102 0 
1 177 -8 0 
1 118 -70 0 
1 113 -190 0 
1 -166 115 0 
1 90 120 0 
1 27 93 0 
1 -84 -135 0 
1 145 158 0 
1 102 -103 0 
1 -100 4 0 
1 108 -14 0 
1 35 74 0 
1 59 -55 0 
1 -124 144 0 
1 -64 -95 0 
1 2 -123 0 
1 45 50 0 
1 -6 48 0 
1 5 -23 0 
1 -80 48 0 
1 -111 92 0 
1 -17 23 0 
1 -111 57 0 
1 153 35 0 
1 188 129 0 
1 52 123 0 
1 172 95 0 
1 148 51 0 
1 149 -26 0 
1 14 -53 0 
1 42 -140 0 
1 110 -148 0 
1 128 35 0 
1 80 132 0 
1 -78 -140 0 
1 -34 -115 0 
1 93 -97 0 
1 78 -35 0 
1 -34 -10 0 
1 31 -168 0 
1 -62 131 0 
1 12 -121 0 
1 58 116 0 
1 -11 58 0 
1 49 -152 0 
1 -149 -117 0 
1 -163 -41 0 
1 172 -33 0 
1 -112 -88 0 
1 -184 -13 0 
1 -114 163 0 
1 4 97 0 
1 -128 98 0 
1 76 102 0 
1 144 12 0 
1 -118 67 0 
1 -24 -98 0 
1 -60 -97 0 
1 -194 169 0 
1 76 34 0 
1 175 -11 0 
1 76 -30 0 
1 3 192 0 
1 -8 33 0 
1 -68 61 0 
1 56 -100 0 
1 -118 48 0 
1 -97 -16 0 
1 194 38 0 
1 175 -191 0 
1 -12 66 0 
1 153 65 0 
1 11 -189 0 
1 -147 76 0 
1 83 19 0 
1 -23 -155 0 
1 -117 26 0 
1 -94 -28 0 
1 116 -153 0 
1 195 -165 0 
1 -190 -107 0 
1 100 123 0 
1 73 -158 0 
1 -147 5 0 
1 41 156 0 
1 -139 103 0 
1 3 96 0 
1 -26 114 0 
1 40 -18 0 
1 -117 153 0 
1 -24 111 0 
1 -107 151 0 
1 55 -102 0 
1 22 -158 0 
1 -144 -113 0 
1 -9 -48 0 
1 41 12 0 
1 -5 -141 0 
1 -74 56 0 
1 -113 -73 0 
1 123 -171 0 
1 143 62 0 
1 149 1 0 
1 52 -109 0 
1 94 96 0 
1 -119 141 0 
1 148 174 0 
1 56 -180 0 
1 130 91 0 
1 146 1 0 
1 -71 87 0 
1 128 34 0 
1 -171 14 0 
1 -89 177 0 
1 108 81 0 
1 56 109 0 
1 -141 183 0 
1 -9 121 0 
1 3 -143 0 
1 51 126 0 
1 171 -105 0 
1 -171 -164 0 
1 147 -4 0 
1 98 194 0 
1 129 47 0 
1 -55 138 0 
1 -7 -121 0 
1 -183 -194 0 
1 152 -88 0 
1 -119 -104 0 
1 -156 -20 0 
1 173 -61 0 
1 -110 111 0 
1 -113 -48 0 
1 181 -29 0 
1 -166 -8 0 
1 194 -187 0 
1 134 -149 0 
1 -96 -142 0 
1 83 129 0 
1 150 -192 0 
1 -35 117 0 
1 195 -105 0 
1 79 -3 0 
1 27 176 0 
1 -67 -66 0 
1 -55 -165 0 
1 -114 28 0 
1 -146 -71 0 
1 -121 171 0 
1 122 -53 0 
1 -127 130 0 
1 114 194 0 
1 -38 41 0 
1 173 -109 0 
1 186 -132 0 
1 75 119 0 
1 -136 -108 0 
1 80 -59 0 
1 102 137 0 
1 62 8 0 
1 -63 -168 0 
1 23 38 0 
1 -193 -39 0 
1 -189 -97 0 
1 112 163 0 
1 -148 70 0 
1 -83 28 0 
1 -185 175 0 
1 -170 -41 0 
1 46 -166 0 
1 186 146 0 
1 -8 -126 0 
1 41 -190 0 
1 -147 194 0 
1 6 24 0 
1 20 -30 0 
1 -92 150 0 
1 -79 94 0 
1 -30 15 0 
1 -85 122 0 
1 130 190 0 
1 123 -88 0 
1 -181 -145 0 
1 173 -73 0 
1 126 -42 0 
1 58 88 0 
1 -13 -121 0 
1 151 130 0 
1 143 94 0 
1 108 -84 0 
1 48 -9 0 
1 176 -22 0 
1 175 187 0 
1 -29 -179 0 
1 -102 148 0 
1 -133 191 0 
1 -81 113 0 
1 -160 171 0 
1 112 87 0 
1 -151 23 0 
1 -13 -176 0 
1 -107 171 0 
1 -119 -48 0 
1 4 -118 0 
1 -48 130 0 
1 72 -32 0 
1 188 -96 0 
1 -90 -74 0 
1 15 -19 0 
1 173 -31 0 
1 -69 125 0 
1 -98 26 0 
1 124 -41 0 
1 4 -118 0 
1 19 90 0 
1 43 -13 0 
1 -168 23 0 
1 166 -124 0 
1 136 72 0 
1 -75 -62 0 
1 116 120 0 
1 -5 -86 0 
1 -59 96 0 
1 -158 70 0 
1 91 130 0 
1 -39 -140 0 
1 -105 97 0 
1 -115 -150 0 
1 11 -188 0 
1 96 6 0 
1 65 78 0 
1 -68 7 0 
1 23 -56 0 
1 111 -186 0 
1 64 -168 0 
1 192 103 0 
1 17 -166 0 
1 140 19 0 
1 -124 -56 0 
1 150 -80 0 
1 28 91 0 
1 -195 79 0 
1 -191 130 0 
1 36 55 0 
1 75 14 0 
1 -182 -109 0 
1 -34 77 0 
1 -186 -56 0 
1 154 -33 0 
1 -110 99 0 
1 122 -124 0 
1 -52 40 0 
1 -121 -170 0 
1 -182 -140 0 
1 -86 194 0 
1 -154 142 0 
1 -148 -47 0 
1 -32 58 0 
1 66 -160 0 
1 -20 -195 0 
1 -78 34 0 
1 103 75 0 
1 149 74 0 
1 -189 121 0 
1 24 143 0 
1 118 76 0 
1 126 -158 0 
1 -12 57 0 
1 -111 -4 0 
1 -104 -139 0 
1 32 88 0 
1 -88 105 0 
1 -39 -40 0 
1 -176 -166 0 
1 -168 -144 0 
1 143 -157 0 
1 -142 47 0 
1 24 147 0 
1 -166 -86 0 
1 -103 -17 0 
1 191 44 0 
1 103 -50 0 
1 -89 -46 0 
1 129 45 0 
1 56 100 0 
